NAME          
ROWS
 N  OBJ
 L  c1
COLUMNS
    MARKER    'MARKER'                 'INTORG'
    x[1]      c1        32
    x[1]      OBJ       -24
    x[2]      c1        462
    x[2]      OBJ       -500
    x[3]      c1        518
    x[3]      OBJ       -555
    x[4]      c1        531
    x[4]      OBJ       -479
    x[5]      c1        547
    x[5]      OBJ       -627
    x[6]      c1        822
    x[6]      OBJ       -828
    x[7]      c1        30
    x[7]      OBJ       -114
    x[8]      c1        194
    x[8]      OBJ       -285
    x[9]      c1        93
    x[9]      OBJ       -189
    x[10]     c1        486
    x[10]     OBJ       -546
    x[11]     c1        73
    x[11]     OBJ       -119
    x[12]     c1        941
    x[12]     OBJ       -920
    x[13]     c1        -33
    x[13]     OBJ       -67
    x[14]     c1        405
    x[14]     OBJ       -467
    x[15]     c1        967
    x[15]     OBJ       -955
    x[16]     c1        501
    x[16]     OBJ       -496
    x[17]     c1        -57
    x[17]     OBJ       -8
    x[18]     c1        178
    x[18]     OBJ       -207
    x[19]     c1        278
    x[19]     OBJ       -374
    x[20]     c1        291
    x[20]     OBJ       -312
    x[21]     c1        761
    x[21]     OBJ       -826
    x[22]     c1        555
    x[22]     OBJ       -458
    x[23]     c1        686
    x[23]     OBJ       -693
    x[24]     c1        586
    x[24]     OBJ       -650
    x[25]     c1        680
    x[25]     OBJ       -699
    x[26]     c1        452
    x[26]     OBJ       -495
    x[27]     c1        756
    x[27]     OBJ       -828
    x[28]     c1        554
    x[28]     OBJ       -478
    x[29]     c1        135
    x[29]     OBJ       -45
    x[30]     c1        664
    x[30]     OBJ       -727
RHS
    rhs       c1        6544
RANGES
BOUNDS
 BV bounds    x[1]
 BV bounds    x[2]
 BV bounds    x[3]
 BV bounds    x[4]
 BV bounds    x[5]
 BV bounds    x[6]
 BV bounds    x[7]
 BV bounds    x[8]
 BV bounds    x[9]
 BV bounds    x[10]
 BV bounds    x[11]
 BV bounds    x[12]
 BV bounds    x[13]
 BV bounds    x[14]
 BV bounds    x[15]
 BV bounds    x[16]
 BV bounds    x[17]
 BV bounds    x[18]
 BV bounds    x[19]
 BV bounds    x[20]
 BV bounds    x[21]
 BV bounds    x[22]
 BV bounds    x[23]
 BV bounds    x[24]
 BV bounds    x[25]
 BV bounds    x[26]
 BV bounds    x[27]
 BV bounds    x[28]
 BV bounds    x[29]
 BV bounds    x[30]
ENDATA
